
Gurobi 11.0.3 (linux64) logging started Fri Nov 22 00:13:50 2024

Set parameter LogFile to value "/home/yihong/Coding/OR_SUC/SUC_results_bigM100000_thread4/case24_ieee_rts_theta0.5_epsilon0.05_gurobi_seed690000_num_gen100_N_WDR100_load_scaling_factor1_exact_T20quadra_cost.txt"
Set parameter TimeLimit to value 3600
Gurobi Optimizer version 11.0.3 build v11.0.3rc0 (linux64 - "Ubuntu 20.04.6 LTS")

CPU model: AMD EPYC 7532 32-Core Processor, instruction set [SSE2|AVX|AVX2]
Thread count: 64 physical cores, 128 logical processors, using up to 4 threads

Optimize a model with 47983 rows, 25001 columns and 1104482 nonzeros
Model fingerprint: 0xdf7672b2
Model has 2000 quadratic constraints
Variable types: 22901 continuous, 2100 integer (2100 binary)
Coefficient statistics:
  Matrix range     [3e-04, 1e+05]
  QMatrix range    [2e-03, 8e-03]
  QLMatrix range   [2e-02, 6e+01]
  Objective range  [1e+00, 1e+00]
  Bounds range     [1e+00, 1e+00]
  RHS range        [1e+00, 1e+05]
Presolve removed 39138 rows and 10576 columns
Presolve time: 0.33s
Presolved: 8845 rows, 14425 columns, 49478 nonzeros
Presolved model has 2000 quadratic constraint(s)
Variable types: 12336 continuous, 2089 integer (2089 binary)

Root relaxation: objective 3.575540e+04, 7121 iterations, 0.20 seconds (0.27 work units)

    Nodes    |    Current Node    |     Objective Bounds      |     Work
 Expl Unexpl |  Obj  Depth IntInf | Incumbent    BestBd   Gap | It/Node Time

     0     0 35755.3960    0   14          - 35755.3960      -     -    0s
     0     0 343087.436    0  499          - 343087.436      -     -    1s
     0     0 343507.388    0  494          - 343507.388      -     -    1s
     0     0 534372.443    0  499          - 534372.443      -     -    1s
     0     0 534480.014    0  361          - 534480.014      -     -    1s
     0     0 534711.141    0  291          - 534711.141      -     -    1s
     0     0 534711.745    0  291          - 534711.745      -     -    1s
     0     0 534712.313    0  278          - 534712.313      -     -    1s
     0     0 534713.478    0  278          - 534713.478      -     -    1s
     0     2 534719.576    0  278          - 534719.576      -     -    2s
H  418   290                    534962.39895 534724.287  0.04%  21.8    4s
*  418   290             103    534962.39895 534724.287  0.04%  21.8    4s

Cutting planes:
  Gomory: 8
  Implied bound: 328
  MIR: 127
  Flow cover: 89
  Relax-and-lift: 27

Explored 435 nodes (27822 simplex iterations) in 4.64 seconds (5.54 work units)
Thread count was 4 (of 128 available processors)

Solution count 2: 534962 534962 

Optimal solution found (tolerance 1.00e-03)
Warning: max constraint violation (1.2147e-07) exceeds tolerance
Best objective 5.349623989458e+05, best bound 5.347242868958e+05, gap 0.0445%
